language ESSENCE' 1.0

letting fixed be 
[
    [0,2,0,9,4,3,7,1,5],
    [9,0,4,0,0,0,6,0,0],
    [7,5,0,0,0,0,0,4,0],
    [5,0,0,4,8,0,0,0,0],
    [2,0,0,0,0,0,4,5,3],
    [4,0,0,3,5,2,0,0,0],
    [0,4,2,0,0,0,0,8,1],
    [0,0,5,0,0,4,2,6,0],
    [0,9,0,2,0,8,5,0,4]
]